2-dimensional/CL_01_25_09.vbp
2
1000 1000 
25
388 285 30
367 303 72
314 272 4
297 160 88
182 334 54
236 359 64
225 203 90
315 232 26
175 313 94
169 113 28
166 298 72
131 135 49
132 191 54
334 232 19
105 125 28
111 136 61
220 333 84
396 281 23
109 249 67
123 301 53
105 306 54
123 229 16
343 137 9
132 198 54
156 377 77
