2-dimensional/CL_01_25_09.txt
1000 1000 
0 30 388 285 
1 72 367 303 
2 4 314 272 
3 88 297 160 
4 54 182 334 
5 64 236 359 
6 90 225 203 
7 26 315 232 
8 94 175 313 
9 28 169 113 
10 72 166 298 
11 49 131 135 
12 54 132 191 
13 19 334 232 
14 28 105 125 
15 61 111 136 
16 84 220 333 
17 23 396 281 
18 67 109 249 
19 53 123 301 
20 54 105 306 
21 16 123 229 
22 9 343 137 
23 54 132 198 
24 77 156 377 
